12 40 3 10
8 7 17 2 12 8 11 12 15 18 20 14 16 4 4 2 16 8 8 14 18 5 9 18 17 5 12 19 2 13 19 19 9 11 19 8 14 20 7 2 
3.83 0.91 11.49 0.8 0.76 15.55 4.14 3.85 14.33 1.73 8.31 7.01 8.98 14.97 14.65 12.48 13.35 6.52 0.27 12.19 9.77 12.21 3.87 9.97 12.32 0.27 0.87 0.22 3.02 14.25 10.12 13.6 8.5 16 6.12 4.74 6.53 13.17 8.92 9.01 
3.96 9.52 8.71 9.48 6.71 15.28 0.49 8.47 0.65 10.9 8.45 7.51 3.76 13.41 5.35 7.03 1.43 0.6 8.58 1.35 6.8 9.04 12.13 6.11 14.96 15.64 2.86 8.27 14.3 4.76 1.59 11.41 8.63 10.93 2.08 8.14 13.93 13.27 2.44 5.96 
14.82 15.95 10.86 15.29 3.71 6.96 8.62 8.94 1.98 5.14 1.57 3.3 11.7 10 7.09 4.76 8.41 13.27 5.91 9.91 8.15 3.99 12.78 13.57 6.75 0.04 11.02 7.67 15.28 3.66 15.42 6.55 13.28 6.48 15.55 1.12 8.36 0.42 2.67 1.44 
8 8 8 8 8 8 8 8 8 8 8 8 8 8 8 8 8 8 8 8 8 8 8 8 8 8 8 8 8 8 8 8 8 8 8 8 8 8 8 8 
3.75 13.64 2.49 9.66 10.57 10.75 4.34 3.41 12.03 11.48 1.9 13.48 4.7 2.01 5.29 13.95 8.7 9.48 11.16 0.31 15.38 7.9 10.09 3.51 5.9 13.25 6.83 2.04 2.5 13.82 0.31 6.85 9.51 9.42 14.68 12.61 14.51 7.69 7.8 5.11 
12.99 3.03 15.33 13.89 1.54 2.44 14.18 6.34 11.87 11.73 12.35 0.52 14.38 6.57 5.67 4.95 0.11 8.15 7.1 8.12 9.83 11.63 9.24 3.63 9.57 11.57 6.72 12.98 15.58 3.68 4.5 2.28 2.78 4.64 6.77 6.17 2.95 0.51 13.65 4.18 
1.32 2.6 10.49 10.31 1.94 11.67 2.78 5.18 11.52 6.95 5.83 2.27 12.54 12.13 0.16 9.09 9.54 0.93 7.85 10.47 15.66 2.21 13.14 14.22 9.74 10.5 11.76 11.16 7.91 10.9 8.05 13.47 2.3 10.93 9.31 10.38 7.19 7.41 8.11 8.46 
1.69 4.88 4.76 2.16 12.7 9.11 13.18 10.42 4.19 14.06 5.31 2.55 12.46 5.04 14.87 14.09 14.31 0.33 13.73 11.72 8.56 5.94 6.41 3.7 10.03 11.84 11.06 0.1 11.99 15.39 15.39 9.14 10.2 2.19 0.5 4.32 2.77 4.15 13.96 3.63 
3.41 9.1 3.61 14.64 15.59 2.4 9.99 5.42 2.17 15.48 14.9 12.71 8.21 8.77 10.14 5.67 11.77 11.31 9.27 3.02 6.98 7.04 5.42 13.56 6.22 13.8 3.46 14.06 13.98 5.5 4.06 14.97 7.23 13.06 11.56 5.6 11.1 7.48 4.27 3.15 
6.4 9.41 5.19 13.85 8.62 2.65 4.57 5.03 10.5 4 8.26 7.22 7.32 12.89 11.36 5.75 10.43 7.86 3.25 10.43 0.25 1.56 5.55 12.58 13.35 5.25 12.46 9.11 2.89 11.55 4.19 4.67 7.18 9.86 9.92 5.24 1.56 8.32 6.33 0.59 
1.97 5.36 10.65 9.99 0.42 12.6 4.08 5.75 6.5 3.53 5.28 3.91 1.17 2.78 11.53 12.59 2.46 1.24 8.19 1.32 5.84 6.17 13.53 13.7 5.9 3.57 3.46 9.3 6.3 7.96 1.22 6.15 15.12 3.14 8.91 4.23 0.13 2.28 12.79 11.74 
10.68 1.6 9.46 7.93 0.56 11.93 12.4 10.86 15.85 8.1 15.2 9.46 2.81 8.78 3.79 10.91 5.26 15.29 1.88 12.29 5.35 15.7 7.5 0.74 8.34 15.35 12.12 15.3 13.9 5.63 6.33 7.48 4.83 6.55 0.44 8.01 9.94 1.06 12.03 0.76 
1 1 1 1 1 1 1 1 1 1 1 1 1 1 1 1 1 1 1 1 1 1 1 1 1 1 1 1 1 1 1 1 1 1 1 1 1 1 1 1 
1 1 1 1 1 1 1 1 1 1 1 1 1 1 1 1 1 1 1 1 1 1 1 1 1 1 1 1 1 1 1 1 1 1 1 1 1 1 1 1 
1 1 1 1 1 1 1 1 1 1 1 1 1 1 1 1 1 1 1 1 1 1 1 1 1 1 1 1 1 1 1 1 1 1 1 1 1 1 1 1 
1 1 1 1 1 1 1 1 1 1 1 1 1 1 1 1 1 1 1 1 1 1 1 1 1 1 1 1 1 1 1 1 1 1 1 1 1 1 1 1 
1 1 1 1 1 1 1 1 1 1 1 1 1 1 1 1 1 1 1 1 1 1 1 1 1 1 1 1 1 1 1 1 1 1 1 1 1 1 1 1 
1 1 1 1 1 1 1 1 1 1 1 1 1 1 1 1 1 1 1 1 1 1 1 1 1 1 1 1 1 1 1 1 1 1 1 1 1 1 1 1 
1 1 1 1 1 1 1 1 1 1 1 1 1 1 1 1 1 1 1 1 1 1 1 1 1 1 1 1 1 1 1 1 1 1 1 1 1 1 1 1 
1 1 1 1 1 1 1 1 1 1 1 1 1 1 1 1 1 1 1 1 1 1 1 1 1 1 1 1 1 1 1 1 1 1 1 1 1 1 1 1 
1 1 1 1 1 1 1 1 1 1 1 1 1 1 1 1 1 1 1 1 1 1 1 1 1 1 1 1 1 1 1 1 1 1 1 1 1 1 1 1 
1 1 1 1 1 1 1 1 1 1 1 1 1 1 1 1 1 1 1 1 1 1 1 1 1 1 1 1 1 1 1 1 1 1 1 1 1 1 1 1 
1 1 1 1 1 1 1 1 1 1 1 1 1 1 1 1 1 1 1 1 1 1 1 1 1 1 1 1 1 1 1 1 1 1 1 1 1 1 1 1 
1 1 1 1 1 1 1 1 1 1 1 1 1 1 1 1 1 1 1 1 1 1 1 1 1 1 1 1 1 1 1 1 1 1 1 1 1 1 1 1 
0.01 0.01 0.01 0.01 0.01 0.01 0.01 0.01 0.01 0.01 0.01 0.01 0.01 0.01 0.01 0.01 0.01 0.01 0.01 0.01 0.01 0.01 0.01 0.01 0.01 0.01 0.01 0.01 0.01 0.01 0.01 0.01 0.01 0.01 0.01 0.01 0.01 0.01 0.01 0.01 
0.02 0.02 0.02 0.02 0.02 0.02 0.02 0.02 0.02 0.02 0.02 0.02 0.02 0.02 0.02 0.02 0.02 0.02 0.02 0.02 0.02 0.02 0.02 0.02 0.02 0.02 0.02 0.02 0.02 0.02 0.02 0.02 0.02 0.02 0.02 0.02 0.02 0.02 0.02 0.02 
0.03 0.03 0.03 0.03 0.03 0.03 0.03 0.03 0.03 0.03 0.03 0.03 0.03 0.03 0.03 0.03 0.03 0.03 0.03 0.03 0.03 0.03 0.03 0.03 0.03 0.03 0.03 0.03 0.03 0.03 0.03 0.03 0.03 0.03 0.03 0.03 0.03 0.03 0.03 0.03 
0.04 0.04 0.04 0.04 0.04 0.04 0.04 0.04 0.04 0.04 0.04 0.04 0.04 0.04 0.04 0.04 0.04 0.04 0.04 0.04 0.04 0.04 0.04 0.04 0.04 0.04 0.04 0.04 0.04 0.04 0.04 0.04 0.04 0.04 0.04 0.04 0.04 0.04 0.04 0.04 
0.125 0.125 0.125 0.125 0.125 0.125 0.125 0.125 0.125 0.125 0.125 0.125 0.125 0.125 0.125 0.125 0.125 0.125 0.125 0.125 0.125 0.125 0.125 0.125 0.125 0.125 0.125 0.125 0.125 0.125 0.125 0.125 0.125 0.125 0.125 0.125 0.125 0.125 0.125 0.125 
0.25 0.25 0.25 0.25 0.25 0.25 0.25 0.25 0.25 0.25 0.25 0.25 0.25 0.25 0.25 0.25 0.25 0.25 0.25 0.25 0.25 0.25 0.25 0.25 0.25 0.25 0.25 0.25 0.25 0.25 0.25 0.25 0.25 0.25 0.25 0.25 0.25 0.25 0.25 0.25 
0.375 0.375 0.375 0.375 0.375 0.375 0.375 0.375 0.375 0.375 0.375 0.375 0.375 0.375 0.375 0.375 0.375 0.375 0.375 0.375 0.375 0.375 0.375 0.375 0.375 0.375 0.375 0.375 0.375 0.375 0.375 0.375 0.375 0.375 0.375 0.375 0.375 0.375 0.375 0.375 
0.5 0.5 0.5 0.5 0.5 0.5 0.5 0.5 0.5 0.5 0.5 0.5 0.5 0.5 0.5 0.5 0.5 0.5 0.5 0.5 0.5 0.5 0.5 0.5 0.5 0.5 0.5 0.5 0.5 0.5 0.5 0.5 0.5 0.5 0.5 0.5 0.5 0.5 0.5 0.5 
0.625 0.625 0.625 0.625 0.625 0.625 0.625 0.625 0.625 0.625 0.625 0.625 0.625 0.625 0.625 0.625 0.625 0.625 0.625 0.625 0.625 0.625 0.625 0.625 0.625 0.625 0.625 0.625 0.625 0.625 0.625 0.625 0.625 0.625 0.625 0.625 0.625 0.625 0.625 0.625 
0.75 0.75 0.75 0.75 0.75 0.75 0.75 0.75 0.75 0.75 0.75 0.75 0.75 0.75 0.75 0.75 0.75 0.75 0.75 0.75 0.75 0.75 0.75 0.75 0.75 0.75 0.75 0.75 0.75 0.75 0.75 0.75 0.75 0.75 0.75 0.75 0.75 0.75 0.75 0.75 
0.875 0.875 0.875 0.875 0.875 0.875 0.875 0.875 0.875 0.875 0.875 0.875 0.875 0.875 0.875 0.875 0.875 0.875 0.875 0.875 0.875 0.875 0.875 0.875 0.875 0.875 0.875 0.875 0.875 0.875 0.875 0.875 0.875 0.875 0.875 0.875 0.875 0.875 0.875 0.875 
1 1 1 1 1 1 1 1 1 1 1 1 1 1 1 1 1 1 1 1 1 1 1 1 1 1 1 1 1 1 1 1 1 1 1 1 1 1 1 1 
